p cnf 14 64
5 -12 13 0
-3 -8 -12 0
1 12 -13 0
4 5 13 0
2 -9 12 0
3 -5 -11 0
2 3 -5 0
5 10 14 0
2 -6 -13 0
7 11 13 0
-1 -4 -10 0
1 -4 -13 0
4 6 9 0
3 -12 -13 0
4 -5 7 0
1 -5 -8 0
-2 5 -12 0
-3 -5 -11 0
1 -11 -12 0
3 -6 7 0
3 7 -13 0
3 7 14 0
-8 9 -10 0
-2 4 -14 0
7 9 12 0
-1 -3 8 0
-3 6 -13 0
-1 6 13 0
-12 -13 14 0
-5 6 7 0
-3 10 11 0
2 5 10 0
-1 -5 6 0
-1 -6 7 0
-7 8 -12 0
9 -12 -13 0
-3 -5 -13 0
2 -5 8 0
1 3 12 0
-2 3 6 0
1 -2 -12 0
-2 -4 -10 0
4 -9 -10 0
-1 -8 13 0
8 11 -13 0
-2 3 4 0
7 -10 -13 0
1 6 -9 0
6 9 12 0
-3 -9 13 0
6 11 13 0
-5 -6 -9 0
5 7 -9 0
-3 9 -14 0
-5 -12 -14 0
3 -8 12 0
1 -10 12 0
-3 6 9 0
-4 6 11 0
-1 4 -14 0
-5 7 -13 0
-5 -8 14 0
2 -12 13 0
-1 -8 -14 0
